p cnf 162 244
-82 79 0
-82 80 0
82 -79 -80 0
-83 75 0
-83 76 0
83 -75 -76 0
-84 71 0
-84 72 0
84 -71 -72 0
-85 69 0
-85 70 0
85 -69 -70 0
-86 59 0
-86 60 0
86 -59 -60 0
-87 55 0
-87 56 0
87 -55 -56 0
-88 53 0
-88 54 0
88 -53 -54 0
-89 51 0
-89 52 0
89 -51 -52 0
-90 45 0
-90 46 0
90 -45 -46 0
-91 43 0
-91 44 0
91 -43 -44 0
-92 41 0
-92 42 0
92 -41 -42 0
-93 -91 0
-93 -92 0
93 91 92 0
-94 -90 0
-94 93 0
94 90 -93 0
-95 47 0
-95 48 0
95 -47 -48 0
-96 94 0
-96 -95 0
96 -94 95 0
-97 49 0
-97 50 0
97 -49 -50 0
-98 96 0
-98 -97 0
98 -96 97 0
-99 -89 0
-99 98 0
99 89 -98 0
-100 -88 0
-100 99 0
100 88 -99 0
-101 -87 0
-101 100 0
101 87 -100 0
-102 57 0
-102 58 0
102 -57 -58 0
-103 101 0
-103 -102 0
103 -101 102 0
-104 -86 0
-104 103 0
104 86 -103 0
-105 61 0
-105 62 0
105 -61 -62 0
-106 104 0
-106 -105 0
106 -104 105 0
-107 63 0
-107 64 0
107 -63 -64 0
-108 106 0
-108 -107 0
108 -106 107 0
-109 65 0
-109 66 0
109 -65 -66 0
-110 108 0
-110 -109 0
110 -108 109 0
-111 67 0
-111 68 0
111 -67 -68 0
-112 110 0
-112 -111 0
112 -110 111 0
-113 -85 0
-113 112 0
113 85 -112 0
-114 -84 0
-114 113 0
114 84 -113 0
-115 73 0
-115 74 0
115 -73 -74 0
-116 114 0
-116 -115 0
116 -114 115 0
-117 -83 0
-117 116 0
117 83 -116 0
-118 77 0
-118 78 0
118 -77 -78 0
-119 117 0
-119 -118 0
119 -117 118 0
-120 -82 0
-120 119 0
120 82 -119 0
-121 -81 0
-121 -120 0
121 81 120 0
-122 39 0
-122 40 0
122 -39 -40 0
-123 31 0
-123 32 0
123 -31 -32 0
-124 27 0
-124 28 0
124 -27 -28 0
-125 25 0
-125 26 0
125 -25 -26 0
-126 19 0
-126 20 0
126 -19 -20 0
-127 13 0
-127 14 0
127 -13 -14 0
-128 9 0
-128 10 0
128 -9 -10 0
-129 7 0
-129 8 0
129 -7 -8 0
-130 1 0
-130 2 0
130 -1 -2 0
-131 3 0
-131 4 0
131 -3 -4 0
-132 -130 0
-132 -131 0
132 130 131 0
-133 5 0
-133 6 0
133 -5 -6 0
-134 132 0
-134 -133 0
134 -132 133 0
-135 -129 0
-135 134 0
135 129 -134 0
-136 -128 0
-136 135 0
136 128 -135 0
-137 11 0
-137 12 0
137 -11 -12 0
-138 136 0
-138 -137 0
138 -136 137 0
-139 -127 0
-139 138 0
139 127 -138 0
-140 15 0
-140 16 0
140 -15 -16 0
-141 139 0
-141 -140 0
141 -139 140 0
-142 17 0
-142 18 0
142 -17 -18 0
-143 141 0
-143 -142 0
143 -141 142 0
-144 -126 0
-144 143 0
144 126 -143 0
-145 21 0
-145 22 0
145 -21 -22 0
-146 144 0
-146 -145 0
146 -144 145 0
-147 23 0
-147 24 0
147 -23 -24 0
-148 146 0
-148 -147 0
148 -146 147 0
-149 -125 0
-149 148 0
149 125 -148 0
-150 -124 0
-150 149 0
150 124 -149 0
-151 29 0
-151 30 0
151 -29 -30 0
-152 150 0
-152 -151 0
152 -150 151 0
-153 -123 0
-153 152 0
153 123 -152 0
-154 33 0
-154 34 0
154 -33 -34 0
-155 153 0
-155 -154 0
155 -153 154 0
-156 35 0
-156 36 0
156 -35 -36 0
-157 155 0
-157 -156 0
157 -155 156 0
-158 37 0
-158 38 0
158 -37 -38 0
-159 157 0
-159 -158 0
159 -157 158 0
-160 -122 0
-160 159 0
160 122 -159 0
-161 81 0
-161 -160 0
161 -81 160 0
-162 -121 0
-162 -161 0
162 121 161 0
-162 0
